Route #1: 4 52 34 
Route #2: 27 15 20 37 5 2 
Route #3: 22 28 48 29 45 
Route #4: 51 16 49 24 31 10 
Route #5: 26 38 11 53 
Route #6: 3 44 9 39 40 
Route #7: 54 13 36 47 21 30 
Route #8: 12 25 18 50 32 17 
Route #9: 7 35 14 19 8 46 
Route #10: 23 41 42 43 1 33 6 
cost 770.332
